NAME : tsp
TYPE : TSP
DIMENSION : 6
EDGE_WEIGHT_TYPE: EXPLICIT
EDGE_WEIGHT_FORMAT: FULL_MATRIX
EDGE_WEIGHT_SECTION
0	857351	1.02811e+06	1.18593e+06	1.39822e+06	1.41444e+06	
857351	0	170880	340588	544518	559017	
1.02811e+06	170880	0	196977	380132	392046	
1.18593e+06	340588	196977	0	219317	241868	
1.39822e+06	544518	380132	219317	0	31622.8	
1.41444e+06	559017	392046	241868	31622.8	0	
